p cnf 25 100
1 2 23 0
-1 3 -4 0
1 12 5 0
-1 -6 -15 0
1 10 7 0
-8 1 25 0
1 -11 9 0
-1 21 -13 0
1 -14 -22 0
16 1 24 0
1 -18 -17 0
1 19 -20 0
17 2 3 0
2 4 20 0
-2 5 -14 0
2 10 6 0
2 -19 -7 0
8 2 -18 0
-9 -2 -21 0
24 2 11 0
-2 12 -22 0
25 2 -13 0
16 -2 15 0
-19 3 5 0
3 6 14 0
9 3 -7 0
-8 3 23 0
-10 3 21 0
-11 -3 -22 0
-24 3 12 0
16 3 -13 0
18 3 -15 0
-25 3 20 0
18 4 -5 0
-19 -4 6 0
4 12 7 0
-8 24 4 0
-9 -4 -25 0
-10 -11 4 0
-4 13 -22 0
-4 14 23 0
4 -21 15 0
16 17 -4 0
-5 6 -22 0
-17 5 -7 0
-8 5 15 0
-9 10 5 0
21 11 5 0
-24 13 5 0
-16 20 5 0
25 -5 -23 0
-16 -6 7 0
-8 12 6 0
-24 -9 6 0
-17 11 6 0
20 -13 -6 0
-25 18 6 0
21 6 23 0
8 22 7 0
-11 23 7 0
18 -13 7 0
-25 14 7 0
-15 20 7 0
24 21 7 0
8 -9 16 0
8 10 -19 0
-8 -11 20 0
-8 17 13 0
-8 -21 -14 0
-9 -18 -12 0
-9 13 14 0
9 19 15 0
-9 -17 23 0
-9 -20 22 0
-17 -10 -12 0
10 13 -15 0
24 -10 14 0
16 -25 -10 0
10 18 -22 0
10 20 -23 0
16 11 -12 0
19 -11 -13 0
18 11 14 0
-25 11 15 0
-12 13 -23 0
12 14 -15 0
-25 -19 12 0
-21 -12 -20 0
-16 -19 -14 0
-17 -20 14 0
17 -22 -15 0
24 23 15 0
16 -18 -21 0
16 22 -23 0
-24 17 -19 0
17 -21 -25 0
18 19 23 0
-24 18 20 0
-19 21 -22 0
-24 25 22 0
